NAME : random1249610
COMMENT: random generated with id 1249610
TYPE : TSP
DIMENSION : 10
EDGE_WEIGHT_TYPE : EUC_2D
NODE_COORD_SECTION
1 10.552426 6.997138
2 16.138573 14.686131
3 3.443328 15.929835
4 18.252851 4.901350
5 8.754582 4.359632
6 17.083384 14.674607
7 11.950191 14.389873
8 6.837896 8.816379
9 12.676527 10.187376
10 11.840979 2.733357
EOF
